3	4	1
3	47	1
8	20	1
9	12	1
9	47	1
20	11	1
26	8	1
49	38	1
12	33	2
15	37	2
21	24	2
28	36	2
30	4	2
36	30	2
8	9	4
17	15	4
19	9	4
21	4	4
29	31	4
40	28	4
8	17	5
10	19	5
21	49	5
23	26	5
29	11	5
0	48	6
40	41	6
13	27	7
49	13	7
10	14	8
35	41	8
47	1	8
41	43	9
33	0	10
